% demand
num_movements = 27;
loading_factor = [1350, 1700, 1100, 1400, 1850, 1400, 1100, 1900, 1400, 850, 1600, 1000, 1200, 1650, 1050, 1400, 1450, 1150, 2000, 1550, 1150, 1000, 1300, 1050, 1100, 1850, 1600];
pickup_time = [0, 0, 1, 1, 1, 1, 1, 1, 1, 1, 2, 2, 3, 3, 4, 4, 4, 4, 4, 4, 5, 5, 5, 5, 5, 5, 6];
delivery_time = [1, 1, 2, 4, 4, 3, 2, 4, 4, 2, 3, 4, 4, 5, 5, 7, 5, 5, 5, 5, 7, 7, 7, 7, 7, 7, 7];

% transporter definition
total_capacity = 11000;
num_decks = 4;
capacity = [3000, 3000, 1000, 4000];

% ways out of decks
num_ways_out = 2;
paths_out = array3d(decks, ways_out, decks, [
% ways out of deck d1
2, 4, 0, 0, 3, 4, 0, 0, 

% ways out of deck d2
4, 0, 0, 0, 0, 0, 0, 0,	

% ways out of deck d3
4, 0, 0, 0, 0, 0, 0, 0,	

% ways out of deck d4
0, 0, 0, 0,	0, 0, 0, 0,	

]);

